p cnf 19 10
a 1 0
e 2 0
a 3 4 0
e 5 0
a 6 7 8 0
e 9 0
a 10 0
e 11 0
a 12 0
e 13 14 0
a 15 0
e 16 17 18 0
a 19 0
-10 16 -19 0
-16 -1 -13 0
-13 -11 6 -16 0
-13 -19 -9 16 0
10 16 19 -11 0
10 17 0
-4 19 -3 16 18 0
1 17 5 0
-6 12 -2 18 0
1 -15 -14 -7 6 0
